WARNING: for repeatability, setting FPU to use double precision
============================[ Problem Statistics ]=============================
|                                                                             |
|  Number of variables:            50                                         |
|  Number of clauses:             218                                         |
|  Parse time:                   0.00 s                                       |
|                                                                             |
============================[ Search Statistics ]==============================
| Conflicts |          ORIGINAL         |          LEARNT          | Progress |
|           |    Vars  Clauses Literals |    Limit  Clauses Lit/Cl |          |
===============================================================================
===============================================================================
restarts              : 1
conflicts             : 70             (217391 /sec)
decisions             : 87             (0.00 % random) (270186 /sec)
propagations          : 1054           (3273292 /sec)
conflict literals     : 317            (12.19 % deleted)
Memory used           : 20.00 MB
CPU time              : 0.000322 s

SATISFIABLE
